This is Ipopt version 3.10.1, running with linear solver mumps.

Number of nonzeros in equality constraint Jacobian...:      225
Number of nonzeros in inequality constraint Jacobian.:        0
Number of nonzeros in Lagrangian Hessian.............:     5568

Total number of variables............................:      114
                     variables with only lower bounds:        0
                variables with lower and upper bounds:      114
                     variables with only upper bounds:        0
Total number of equality constraints.................:       75
Total number of inequality constraints...............:        0
        inequality constraints with only lower bounds:        0
   inequality constraints with lower and upper bounds:        0
        inequality constraints with only upper bounds:        0

iter    objective    inf_pr   inf_du lg(mu)  ||d||  lg(rg) alpha_du alpha_pr  ls
   0 -3.4970363e-05 1.00e-02 2.37e-05  -1.0 0.00e+00    -  0.00e+00 0.00e+00   0
   1 -3.5276087e-05 5.17e-10 1.83e-03  -1.7 2.12e-02    -  9.87e-01 1.00e+00h  1
   2 -3.5831789e-05 2.22e-16 4.23e-03  -2.5 2.95e-02    -  9.71e-01 1.00e+00f  1
   3 -3.5672667e-05 2.22e-16 2.61e-04  -3.8 4.00e-02    -  9.75e-01 1.00e+00f  1
   4 -3.8609600e-05 2.22e-16 4.25e-05  -5.7 7.84e-03    -  9.82e-01 1.00e+00f  1
   5 -3.9434165e-05 2.22e-16 2.12e-05  -5.7 2.12e-03  -2.0 1.00e+00 1.00e+00f  1
   6 -4.2129549e-05 1.55e-15 2.20e-05  -5.7 6.63e-03  -2.5 1.00e+00 1.00e+00f  1
   7 -5.3189622e-05 2.22e-16 2.43e-05  -5.7 2.32e-02  -3.0 1.00e+00 1.00e+00f  1
   8 -4.5243358e-04 2.22e-16 6.91e-04  -5.7 2.86e-01  -3.4 1.00e+00 6.04e-01f  1
   9 -6.6092391e-04 4.44e-16 6.46e-04  -5.7 5.19e-02  -2.1 1.00e+00 6.22e-01f  1
iter    objective    inf_pr   inf_du lg(mu)  ||d||  lg(rg) alpha_du alpha_pr  ls
  10 -6.5096698e-04 4.44e-16 5.77e-04  -5.7 1.49e-01  -2.6 1.52e-01 7.81e-03f  8
  11 -6.4457870e-04 1.29e-14 1.90e-03  -5.7 9.28e-01  -2.2 1.41e-01 4.98e-03f  8
  12 -7.7579799e-04 5.77e-15 4.99e-04  -5.7 2.39e-02  -1.7 1.00e+00 5.47e-01f  1
  13 -1.2268980e-03 1.79e-13 7.02e-03  -5.7 6.39e-01  -2.2 7.63e-01 5.36e-02f  1
  14 -1.7367616e-03 1.07e-13 1.16e-03  -5.7 7.41e-02  -1.8 1.00e+00 4.03e-01f  1
  15 -1.7301726e-03 1.06e-13 1.30e-03  -5.7 1.73e-01  -2.3 3.21e-01 1.95e-03f 10
  16 -1.9580898e-03 1.01e-13 7.46e-03  -5.7 2.20e-01  -1.8 1.00e+00 5.09e-02f  1
  17 -2.9397040e-03 2.22e-16 1.72e-03  -5.7 3.88e-02  -1.4 1.00e+00 1.00e+00f  1
  18 -2.3635555e-04 2.22e-16 1.27e-02  -5.7 2.88e-01  -1.9 4.24e-02 1.00e+00h  1
  19 -2.5449391e-04 2.22e-16 9.55e-03  -5.7 4.83e-02  -2.4 1.00e+00 2.50e-01f  3
iter    objective    inf_pr   inf_du lg(mu)  ||d||  lg(rg) alpha_du alpha_pr  ls
  20 -2.5449492e-04 2.22e-16 9.55e-03  -5.7 3.97e-01  -2.8 1.00e+00 1.65e-06f 19
  21 -2.5449501e-04 2.22e-16 9.55e-03  -5.7 6.16e-02  -2.4 1.00e+00 9.54e-07f 21
  22 -2.5449505e-04 2.22e-16 9.55e-03  -5.7 6.16e-01  -2.9 6.49e-01 3.72e-08f 24
  23 -2.5449505e-04 2.22e-16 9.55e-03  -5.7 7.24e-02  -2.5 1.00e+00 7.28e-12h 38
  24 -8.2694885e-04 8.34e-13 8.45e-03  -5.7 1.22e+00  -2.9 3.26e-01 1.66e-01f  1
  25 -1.3442621e-03 1.23e-12 1.07e-02  -5.7 2.65e+00  -2.5 3.73e-01 3.19e-02f  1
  26 -2.6803052e-03 4.06e-13 3.84e-03  -5.7 1.97e-01  -2.1 1.00e+00 6.69e-01f  1
  27 -2.9578549e-03 8.06e-13 3.87e-03  -5.7 1.01e-01  -1.7 1.00e+00 1.77e-01f  1
  28 -2.9535524e-03 8.06e-13 3.46e-03  -5.7 6.20e-01  -2.1 8.57e-02 3.34e-04f 12
  29 -4.7987712e-03 2.79e-13 3.20e-03  -5.7 1.11e-01  -1.7 1.00e+00 6.54e-01f  1
iter    objective    inf_pr   inf_du lg(mu)  ||d||  lg(rg) alpha_du alpha_pr  ls
  30 -5.1620433e-03 1.94e-13 8.90e-03  -5.7 5.59e-02  -1.3 1.00e+00 3.06e-01f  1
  31 -6.7612867e-03 1.27e-12 3.91e-02  -5.7 5.10e-01  -1.8 1.00e+00 6.54e-02f  1
  32 -8.1116092e-03 1.99e-12 4.70e-03  -5.7 6.99e-02  -1.3 1.00e+00 3.13e-01f  1
  33 -9.0780051e-03 1.95e-12 2.85e-03  -5.7 2.32e-02  -0.9 1.00e+00 6.03e-01f  1
  34 -1.0660341e-02 2.72e-12 1.00e-02  -5.7 1.34e-01  -1.4 1.00e+00 1.82e-01f  1
  35 -1.1783074e-02 1.60e-12 3.79e-03  -5.7 3.85e-02  -1.0 1.00e+00 4.10e-01f  1
  36 -1.2670979e-02 1.54e-12 3.84e-02  -5.7 3.22e-01  -1.4 1.00e+00 3.93e-02f  1
  37 -1.5001526e-02 4.53e-13 4.95e-03  -5.7 5.97e-02  -1.0 1.00e+00 7.06e-01f  1
  38 -1.6262470e-02 4.37e-13 1.83e-02  -5.7 5.87e-01  -1.5 2.97e-01 3.53e-02f  1
  39 -1.6787916e-02 3.84e-13 1.61e-02  -5.7 8.02e-02  -1.1 1.00e+00 1.21e-01f  1
iter    objective    inf_pr   inf_du lg(mu)  ||d||  lg(rg) alpha_du alpha_pr  ls
  40 -2.0454849e-02 3.46e-13 1.82e-02  -5.7 4.53e-01  -1.5 2.22e-01 9.78e-02f  1
  41 -2.4212818e-02 2.07e-13 1.01e-02  -5.7 8.74e-02  -1.1 3.49e-01 4.04e-01f  1
  42 -2.4209559e-02 2.07e-13 7.82e-03  -5.7 6.76e-01  -1.6 4.44e-02 9.43e-05f  9
  43 -2.6003677e-02 1.44e-12 1.30e-02  -5.7 1.53e-01  -1.2 5.20e-01 1.23e-01f  1
  44 -2.7743179e-02 7.31e-13 8.05e-03  -5.7 3.51e-02  -0.7 3.07e-01 4.92e-01f  1
  45 -2.9083907e-02 6.91e-13 4.56e-02  -5.7 2.60e-01  -1.2 1.00e+00 5.57e-02f  1
  46 -2.9080600e-02 6.90e-13 4.29e-02  -5.7 6.36e-01  -1.7 2.98e-02 1.67e-04f 10
  47 -3.0701999e-02 1.71e-12 6.21e-02  -5.7 4.08e-01  -1.3 7.79e-01 4.32e-02f  1
  48 -3.5423396e-02 3.63e-13 9.80e-03  -5.7 4.55e-02  -0.8 1.00e+00 7.88e-01f  1
  49 -3.8102410e-02 1.92e-12 8.19e-03  -5.7 2.99e-01  -1.3 7.96e-02 8.89e-02f  1
iter    objective    inf_pr   inf_du lg(mu)  ||d||  lg(rg) alpha_du alpha_pr  ls
  50 -4.3984286e-02 6.12e-13 1.22e-02  -5.7 8.16e-02  -0.9 3.86e-01 6.81e-01f  1
  51 -4.6013407e-02 3.02e-13 9.74e-03  -5.7 3.19e-02  -0.5 6.85e-01 5.07e-01f  1
  52 -6.2652486e-02 9.10e-14 1.81e-02  -5.7 1.51e-01  -0.9 4.93e-01 6.99e-01f  1
  53 -6.3914064e-02 8.30e-14 2.76e-02  -5.7 7.03e-02  -0.5 1.00e+00 8.73e-02f  1
  54 -7.1674663e-02 5.48e-12 4.79e-02  -5.7 3.37e-01  -1.0 4.09e-01 1.37e-01f  1
  55 -8.3857509e-02 1.80e-12 2.34e-02  -5.7 8.89e-02  -0.6 1.00e+00 6.71e-01f  1
  56 -9.5761468e-02 1.74e-12 2.41e-02  -5.7 1.58e+00  -1.0 3.04e-02 3.18e-02f  1
  57 -1.0054863e-01 1.50e-12 6.36e-02  -5.7 9.32e-02  -0.6 7.46e-01 1.38e-01f  1
  58 -1.2628273e-01 1.44e-11 4.40e-02  -5.7 7.54e-01  -1.1 1.59e-02 8.81e-02f  1
  59 -1.3060160e-01 1.34e-11 3.62e-02  -5.7 1.40e-01  -0.7 1.97e-01 6.45e-02f  1
iter    objective    inf_pr   inf_du lg(mu)  ||d||  lg(rg) alpha_du alpha_pr  ls
  60 -1.3185118e-01 1.32e-11 1.05e-01  -5.7 1.00e+00  -1.1 1.81e-01 4.81e-03f  1
  61 -1.4748917e-01 2.14e-11 5.78e-02  -5.7 1.07e-01  -0.7 4.20e-01 4.92e-01f  1
  62 -1.3278193e-01 2.12e-11 7.73e-02  -5.7 7.84e+00  -1.2 4.30e-03 1.04e-02h  1
  63 -1.5172212e-01 7.83e-12 6.20e-02  -5.7 1.21e-01  -0.8 3.64e-03 6.30e-01f  1
  64 -1.5860035e-01 3.53e-12 4.01e-02  -5.7 4.77e-02  -0.3 3.91e-01 5.49e-01f  1
  65 -1.6661210e-01 6.64e-12 3.75e-02  -5.7 2.29e-01  -0.8 5.12e-02 1.58e-01f  1
  66 -1.6664542e-01 5.89e-12 2.13e-01  -5.7 9.86e-02  -0.4 1.00e+00 1.14e-01f  1
  67 -1.6776943e-01 6.59e-12 9.52e-02  -5.7 1.03e-01  -0.9 1.00e+00 4.43e-02f  1
  68 -1.8150979e-01 6.30e-12 1.08e-01  -5.7 1.27e+00    -  6.68e-02 4.49e-02f  1
  69 -1.8453774e-01 5.54e-12 1.02e-01  -5.7 3.19e-01    -  1.57e-01 1.20e-01f  1
iter    objective    inf_pr   inf_du lg(mu)  ||d||  lg(rg) alpha_du alpha_pr  ls
  70 -1.8528991e-01 3.89e-12 7.22e-02  -5.7 1.61e-02  -0.5 1.00e+00 2.98e-01f  1
  71 -1.8737479e-01 1.96e-11 4.06e-02  -5.7 3.50e-02  -0.9 1.00e+00 6.92e-01f  1
  72 -1.8735113e-01 1.92e-11 3.99e-02  -5.7 3.55e-02    -  1.72e-02 1.91e-02f  5
  73 -1.8700623e-01 1.22e-11 4.28e-02  -5.7 3.50e-02    -  4.89e-02 3.63e-01h  1
  74 -1.8699548e-01 1.19e-11 4.59e-02  -5.7 2.36e-02    -  1.00e+00 2.33e-02f  6
  75 -1.8734990e-01 2.45e-11 2.33e-03  -5.7 7.46e-03  -0.5 1.00e+00 1.00e+00f  1
  76 -1.9075053e-01 1.24e-11 8.38e-03  -5.7 5.45e-02  -1.0 1.00e+00 8.42e-01f  1
  77 -1.9074229e-01 1.24e-11 6.76e-02  -5.7 1.01e-01  -1.5 6.87e-01 6.90e-04f 10
  78 -1.8689352e-01 2.22e-16 7.14e-03  -5.7 5.79e-02    -  1.00e+00 1.00e+00h  1
  79 -1.8681549e-01 6.33e-11 2.12e-04  -5.7 1.21e-02    -  1.00e+00 1.00e+00s 22
iter    objective    inf_pr   inf_du lg(mu)  ||d||  lg(rg) alpha_du alpha_pr  ls
  80 -1.8681518e-01 2.22e-16 5.79e-04  -5.7 2.64e-04    -  1.00e+00 0.00e+00S 22
  81 -1.8681518e-01 2.22e-16 1.32e-09  -5.7 1.13e-07  -1.9 1.00e+00 1.00e+00h  1
  82 -1.8696950e-01 8.88e-16 1.31e-06  -8.6 3.32e-04  -2.4 1.00e+00 9.97e-01f  1
  83 -1.8696994e-01 4.44e-16 2.08e-06  -8.6 2.51e-05  -1.1 1.00e+00 1.00e+00f  1
  84 -1.8696994e-01 2.22e-16 1.51e-09  -8.6 2.61e-05    -  1.00e+00 1.00e+00h  1

Number of Iterations....: 84

                                   (scaled)                 (unscaled)
Objective...............:  -1.8696994343818485e-01   -1.8696994343818485e-01
Dual infeasibility......:   1.5099446095129696e-09    1.5099446095129696e-09
Constraint violation....:   2.2204460492503131e-16    2.2204460492503131e-16
Complementarity.........:   2.5064476839092607e-09    2.5064476839092607e-09
Overall NLP error.......:   2.5064476839092607e-09    2.5064476839092607e-09


Number of objective function evaluations             = 289
Number of objective gradient evaluations             = 85
Number of equality constraint evaluations            = 289
Number of inequality constraint evaluations          = 0
Number of equality constraint Jacobian evaluations   = 1
Number of inequality constraint Jacobian evaluations = 0
Number of Lagrangian Hessian evaluations             = 84
Total CPU secs in IPOPT (w/o function evaluations)   =      1.390
Total CPU secs in NLP function evaluations           =     21.490

EXIT: Optimal Solution Found.
